c colouring generated by benchmark framework
p edge 450 5734
v 1 10
v 2 2
v 3 5
v 4 6
v 5 10
v 6 5
v 7 0
v 8 0
v 9 3
v 10 10
v 11 4
v 12 0
v 13 7
v 14 5
v 15 7
v 16 0
v 17 1
v 18 6
v 19 10
v 20 0
v 21 10
v 22 2
v 23 7
v 24 10
v 25 8
v 26 8
v 27 4
v 28 1
v 29 9
v 30 4
v 31 3
v 32 10
v 33 8
v 34 7
v 35 9
v 36 9
v 37 7
v 38 8
v 39 4
v 40 6
v 41 0
v 42 7
v 43 2
v 44 3
v 45 3
v 46 8
v 47 10
v 48 10
v 49 4
v 50 9
v 51 9
v 52 1
v 53 9
v 54 9
v 55 7
v 56 10
v 57 10
v 58 6
v 59 2
v 60 2
v 61 9
v 62 10
v 63 6
v 64 6
v 65 0
v 66 6
v 67 1
v 68 6
v 69 3
v 70 0
v 71 0
v 72 0
v 73 5
v 74 2
v 75 4
v 76 6
v 77 5
v 78 3
v 79 2
v 80 1
v 81 3
v 82 0
v 83 2
v 84 1
v 85 0
v 86 4
v 87 9
v 88 5
v 89 2
v 90 3
v 91 7
v 92 1
v 93 3
v 94 2
v 95 4
v 96 4
v 97 0
v 98 0
v 99 6
v 100 4
v 101 4
v 102 9
v 103 6
v 104 5
v 105 6
v 106 2
v 107 10
v 108 5
v 109 3
v 110 10
v 111 2
v 112 7
v 113 1
v 114 8
v 115 3
v 116 10
v 117 0
v 118 9
v 119 9
v 120 10
v 121 10
v 122 10
v 123 6
v 124 3
v 125 10
v 126 8
v 127 1
v 128 6
v 129 2
v 130 4
v 131 0
v 132 5
v 133 5
v 134 2
v 135 8
v 136 1
v 137 2
v 138 4
v 139 2
v 140 4
v 141 8
v 142 6
v 143 6
v 144 5
v 145 9
v 146 0
v 147 10
v 148 8
v 149 5
v 150 2
v 151 9
v 152 1
v 153 2
v 154 3
v 155 4
v 156 4
v 157 4
v 158 5
v 159 2
v 160 7
v 161 8
v 162 1
v 163 5
v 164 0
v 165 7
v 166 6
v 167 7
v 168 9
v 169 0
v 170 7
v 171 10
v 172 10
v 173 2
v 174 3
v 175 8
v 176 9
v 177 5
v 178 6
v 179 1
v 180 8
v 181 0
v 182 5
v 183 9
v 184 3
v 185 4
v 186 8
v 187 6
v 188 0
v 189 6
v 190 1
v 191 3
v 192 9
v 193 8
v 194 6
v 195 6
v 196 3
v 197 1
v 198 8
v 199 10
v 200 0
v 201 8
v 202 8
v 203 3
v 204 9
v 205 4
v 206 8
v 207 5
v 208 3
v 209 1
v 210 9
v 211 8
v 212 8
v 213 2
v 214 5
v 215 4
v 216 9
v 217 7
v 218 5
v 219 10
v 220 1
v 221 9
v 222 1
v 223 5
v 224 3
v 225 9
v 226 10
v 227 9
v 228 6
v 229 7
v 230 4
v 231 7
v 232 1
v 233 9
v 234 9
v 235 10
v 236 0
v 237 1
v 238 6
v 239 0
v 240 0
v 241 4
v 242 7
v 243 5
v 244 7
v 245 1
v 246 0
v 247 5
v 248 5
v 249 7
v 250 4
v 251 1
v 252 6
v 253 10
v 254 2
v 255 4
v 256 4
v 257 7
v 258 2
v 259 6
v 260 10
v 261 9
v 262 10
v 263 1
v 264 9
v 265 2
v 266 10
v 267 7
v 268 5
v 269 3
v 270 4
v 271 2
v 272 9
v 273 9
v 274 8
v 275 7
v 276 1
v 277 0
v 278 0
v 279 9
v 280 1
v 281 10
v 282 5
v 283 6
v 284 6
v 285 3
v 286 2
v 287 5
v 288 3
v 289 1
v 290 3
v 291 10
v 292 5
v 293 4
v 294 8
v 295 0
v 296 7
v 297 0
v 298 0
v 299 3
v 300 4
v 301 7
v 302 5
v 303 9
v 304 3
v 305 1
v 306 9
v 307 8
v 308 3
v 309 10
v 310 8
v 311 9
v 312 1
v 313 8
v 314 7
v 315 3
v 316 4
v 317 1
v 318 7
v 319 7
v 320 1
v 321 8
v 322 5
v 323 7
v 324 1
v 325 9
v 326 6
v 327 7
v 328 2
v 329 7
v 330 6
v 331 9
v 332 1
v 333 5
v 334 4
v 335 1
v 336 4
v 337 10
v 338 6
v 339 8
v 340 10
v 341 2
v 342 0
v 343 5
v 344 6
v 345 4
v 346 1
v 347 5
v 348 5
v 349 6
v 350 7
v 351 5
v 352 1
v 353 6
v 354 6
v 355 8
v 356 10
v 357 0
v 358 5
v 359 5
v 360 4
v 361 10
v 362 5
v 363 2
v 364 9
v 365 4
v 366 3
v 367 5
v 368 8
v 369 7
v 370 4
v 371 4
v 372 6
v 373 6
v 374 6
v 375 9
v 376 4
v 377 1
v 378 5
v 379 3
v 380 4
v 381 10
v 382 1
v 383 7
v 384 0
v 385 4
v 386 2
v 387 7
v 388 1
v 389 3
v 390 7
v 391 8
v 392 1
v 393 3
v 394 5
v 395 9
v 396 10
v 397 7
v 398 5
v 399 4
v 400 2
v 401 9
v 402 5
v 403 6
v 404 3
v 405 3
v 406 0
v 407 6
v 408 2
v 409 2
v 410 3
v 411 8
v 412 2
v 413 6
v 414 2
v 415 7
v 416 0
v 417 7
v 418 8
v 419 3
v 420 6
v 421 2
v 422 8
v 423 3
v 424 10
v 425 3
v 426 4
v 427 1
v 428 5
v 429 2
v 430 4
v 431 8
v 432 8
v 433 3
v 434 3
v 435 1
v 436 4
v 437 10
v 438 6
v 439 7
v 440 4
v 441 9
v 442 1
v 443 6
v 444 8
v 445 8
v 446 4
v 447 0
v 448 5
v 449 0
v 450 10
